
Gurobi 9.0.2 (linux64) logging started Mon May 25 08:50:05 2020

Changed value of parameter LogFile to gurobi_logs/2020-05-25_08:50:05-rproblem2_implicit_mode=optimality_no_sdp.log
   Prev:   Default: 
Parameter MIPFocus unchanged
   Value: 0  Min: 0  Max: 3  Default: 0
Parameter SolutionLimit unchanged
   Value: 2000000000  Min: 1  Max: 2000000000  Default: 2000000000
Parameter LogToConsole unchanged
   Value: 1  Min: 0  Max: 1  Default: 1
Changed value of parameter TimeLimit to 18000.0
   Prev: inf  Min: 0.0  Max: inf  Default: inf
Gurobi Optimizer version 9.0.2 build v9.0.2rc0 (linux64)
Optimize a model with 2367 rows, 1877 columns and 23302 nonzeros
Model fingerprint: 0xc06742b9
Variable types: 20 continuous, 1857 integer (1506 binary)
Coefficient statistics:
  Matrix range     [9e-02, 5e+01]
  Objective range  [5e-01, 1e+00]
  Bounds range     [1e+00, 1e+00]
  RHS range        [1e+00, 5e+01]
Presolve removed 1691 rows and 1072 columns
Presolve time: 0.03s
Presolved: 676 rows, 805 columns, 5989 nonzeros
Variable types: 1 continuous, 804 integer (798 binary)
Found heuristic solution: objective 176.1905398

Root relaxation: objective 2.084251e+02, 363 iterations, 0.01 seconds

    Nodes    |    Current Node    |     Objective Bounds      |     Work
 Expl Unexpl |  Obj  Depth IntInf | Incumbent    BestBd   Gap | It/Node Time

     0     0  208.42511    0   74  176.19054  208.42511  18.3%     -    0s
H    0     0                     176.2497990  208.42511  18.3%     -    0s
H    0     0                     177.7249931  208.42511  17.3%     -    0s
     0     0  205.81905    0   82  177.72499  205.81905  15.8%     -    0s
H    0     0                     189.3843014  205.81905  8.68%     -    0s
H    0     0                     193.9676348  205.81905  6.11%     -    0s
     0     0  205.62894    0  115  193.96763  205.62894  6.01%     -    0s
     0     0  205.62297    0  137  193.96763  205.62297  6.01%     -    0s
     0     0  203.68024    0  144  193.96763  203.68024  5.01%     -    0s
     0     0  203.13243    0  145  193.96763  203.13243  4.72%     -    0s
     0     0  203.02201    0  144  193.96763  203.02201  4.67%     -    0s
     0     0  202.93242    0  136  193.96763  202.93242  4.62%     -    0s
     0     0  202.86110    0  153  193.96763  202.86110  4.59%     -    0s
     0     0  201.40790    0  134  193.96763  201.40790  3.84%     -    0s
     0     0  201.40790    0  108  193.96763  201.40790  3.84%     -    0s
H    0     0                     194.1781859  201.40790  3.72%     -    0s
     0     0  198.28985    0   65  194.17819  198.28985  2.12%     -    0s
H    0     0                     197.7073066  198.28985  0.29%     -    0s
H    0     0                     197.9545244  198.28985  0.17%     -    0s
     0     0  198.21996    0   73  197.95452  198.21996  0.13%     -    0s
     0     0  198.21847    0   75  197.95452  198.21847  0.13%     -    0s
     0     0  198.06413    0   13  197.95452  198.06413  0.06%     -    0s
     0     0  198.06413    0   12  197.95452  198.06413  0.06%     -    0s
H    0     0                     198.0106400  198.06413  0.03%     -    0s
     0     0  198.06064    0    8  198.01064  198.06064  0.03%     -    0s
H    0     0                     198.0150756  198.06064  0.02%     -    0s

Cutting planes:
  Gomory: 2
  Clique: 2
  MIR: 5
  RLT: 1

Explored 1 nodes (2419 simplex iterations) in 0.39 seconds
Thread count was 24 (of 48 available processors)

Solution count 10: 198.015 198.011 197.955 ... 177.725

Optimal solution found (tolerance 1.00e-04)
Best objective 1.980150755819e+02, best bound 1.980274001888e+02, gap 0.0062%
